
******************************************************************************
This program contains Ipopt, a library for large-scale nonlinear optimization.
 Ipopt is released as open source code under the Eclipse Public License (EPL).
         For more information visit http://projects.coin-or.org/Ipopt
******************************************************************************

This is Ipopt version 3.12.4, running with linear solver mumps.
NOTE: Other linear solvers might be more efficient (see Ipopt documentation).

Number of nonzeros in equality constraint Jacobian...:        0
Number of nonzeros in inequality constraint Jacobian.:        0
Number of nonzeros in Lagrangian Hessian.............:        0

Total number of variables............................:    68921
                     variables with only lower bounds:        0
                variables with lower and upper bounds:        0
                     variables with only upper bounds:        0
Total number of equality constraints.................:        0
Total number of inequality constraints...............:        0
        inequality constraints with only lower bounds:        0
   inequality constraints with lower and upper bounds:        0
        inequality constraints with only upper bounds:        0

iter    objective    inf_pr   inf_du lg(mu)  ||d||  lg(rg) alpha_du alpha_pr  ls
   0 8.3461229e-004 0.00e+000 1.78e-002   0.0 0.00e+000    -  0.00e+000 0.00e+000   0
   1 8.0164926e-004 0.00e+000 1.74e-002 -11.0 1.78e-002    -  1.00e+000 1.00e+000f  1
   2 5.3051898e-006 0.00e+000 9.07e-004 -11.0 8.28e-001    -  1.00e+000 1.00e+000f  1
   3 3.2620203e-006 0.00e+000 6.09e-004 -11.0 4.81e-002    -  1.00e+000 1.00e+000f  1
   4 1.4430209e-006 0.00e+000 7.08e-004 -11.0 1.39e-001    -  1.00e+000 1.00e+000f  1
   5 1.0081936e-006 0.00e+000 3.59e-004 -11.0 1.41e-001    -  1.00e+000 5.00e-001f  2
   6 7.8859386e-007 0.00e+000 1.36e-004 -11.0 2.13e-002    -  1.00e+000 1.00e+000f  1
   7 6.8953149e-007 0.00e+000 1.21e-004 -11.0 3.80e-002    -  1.00e+000 1.00e+000f  1
   8 6.8298140e-007 0.00e+000 2.63e-004 -11.0 8.26e-002    -  1.00e+000 1.00e+000f  1
   9 6.1544576e-007 0.00e+000 1.20e-004 -11.0 3.03e-002    -  1.00e+000 1.00e+000f  1
iter    objective    inf_pr   inf_du lg(mu)  ||d||  lg(rg) alpha_du alpha_pr  ls
  10 5.8019514e-007 0.00e+000 7.40e-005 -11.0 1.66e-002    -  1.00e+000 1.00e+000f  1
  11 5.7230124e-007 0.00e+000 3.10e-005 -11.0 7.79e-003    -  1.00e+000 1.00e+000f  1
  12 5.6991517e-007 0.00e+000 3.13e-005 -11.0 6.56e-003    -  1.00e+000 1.00e+000f  1
  13 5.6806948e-007 0.00e+000 1.93e-005 -11.0 1.79e-002    -  1.00e+000 5.00e-001f  2
  14 5.6637323e-007 0.00e+000 3.90e-005 -11.0 2.65e-002    -  1.00e+000 5.00e-001f  2
  15 5.6538493e-007 0.00e+000 4.80e-005 -11.0 7.10e-003    -  1.00e+000 1.00e+000f  1
  16 5.6392738e-007 0.00e+000 2.18e-005 -11.0 6.49e-003    -  1.00e+000 5.00e-001f  2
  17 5.6331356e-007 0.00e+000 1.61e-005 -11.0 4.55e-003    -  1.00e+000 5.00e-001f  2
  18 5.6328313e-007 0.00e+000 8.34e-006 -11.0 2.10e-003    -  1.00e+000 5.00e-001f  2

Number of Iterations....: 18

                                   (scaled)                 (unscaled)
Objective...............:  5.6328313424268181e-007   5.6328313424268181e-007
Dual infeasibility......:  8.3394239004411831e-006   8.3394239004411831e-006
Constraint violation....:  0.0000000000000000e+000   0.0000000000000000e+000
Complementarity.........:  0.0000000000000000e+000   0.0000000000000000e+000
Overall NLP error.......:  8.3394239004411831e-006   8.3394239004411831e-006


Number of objective function evaluations             = 49
Number of objective gradient evaluations             = 19
Number of equality constraint evaluations            = 0
Number of inequality constraint evaluations          = 0
Number of equality constraint Jacobian evaluations   = 0
Number of inequality constraint Jacobian evaluations = 0
Number of Lagrangian Hessian evaluations             = 0
Total CPU secs in IPOPT (w/o function evaluations)   =     42.424
Total CPU secs in NLP function evaluations           =   1115.175

EXIT: Optimal Solution Found.
